52,170
0
41,79,85,122,130,156,165
20
133
69
149
17,73,128,171
107
84,121
116,158
138
102,110
1,175,181
14,48,56,62,100,112,137,139,154
91
4,16,34,35,37,43,46,53,55,57,81,86,87,98,109,117,118,123,131,146,159,172,180
114
20,52
32
68
27,59,95
22
29,54
17,73,90,128
162
17,73,128,132
17,73,90,111
8,61
173
108
92
67
8
149,176
140,164
142,150
38
61
49
32,64
160
31,77
15,144
10,40,60,105
28,70
11,16,30,51,78,96,101,104,117,118,129,141,179
36
142
64
33,143
163
80,178
157
120,152
66
29
2,23,82,89,134,148,155,161,174
79,99,122,130,156,165
92,127
136,168,182
75,76,125,126,166,167
45,119
33
88,151
44
